%%%mzn-stat: initTime=0.032333818
%%%mzn-stat: objective=182
%%%mzn-stat: nodes=1164186
%%%mzn-stat: restarts=364
%%%mzn-stat: peakDepth=881
%%%mzn-stat: solveTime=628.257553011
%%%mzn-stat: variables=2426
%%%mzn-stat: propagators=2012
%%%mzn-stat: failures=732740
%%%mzn-stat: propagations=48945525
%%%mzn-stat: nogoods=732740
%%%mzn-stat: AverageConflictSize=55.083518028222834
%%%mzn-stat: NumUnitNogoodsLearned=181
%%%mzn-stat: AverageLearnedNogoodLength=114.00786499986353
%%%mzn-stat: AverageBacktrackAmount=0
%%%mzn-stat: AverageLbd=28.196981193875043
%%%mzn-stat-end
maxleg = 182;
succ = array1d(1..100,[77, 87, 74, 85, 94, 52, 48, 68, 29, 36, 3, 83, 15, 51, 33, 62, 4, 46, 45, 38, 8, 20, 1, 7, 43, 58, 12, 11, 55, 80, 95, 17, 26, 10, 59, 84, 5, 97, 71, 35, 39, 56, 69, 88, 78, 54, 23, 42, 64, 86, 76, 89, 14, 13, 61, 99, 65, 100, 19, 49, 44, 60, 47, 98, 50, 9, 6, 70, 96, 63, 81, 34, 37, 90, 40, 28, 30, 16, 67, 22, 82, 73, 72, 93, 75, 92, 27, 57, 25, 91, 32, 41, 21, 53, 79, 18, 31, 24, 2, 66]);
% time elapsed: 628.52 s
----------
==========
% time elapsed: 628.52 s
%%%mzn-stat: initTime=0.032333818
%%%mzn-stat: objective=182
%%%mzn-stat: nodes=1164186
%%%mzn-stat: restarts=364
%%%mzn-stat: peakDepth=881
%%%mzn-stat: solveTime=628.257557823
%%%mzn-stat: variables=2426
%%%mzn-stat: propagators=2012
%%%mzn-stat: failures=732740
%%%mzn-stat: propagations=48945525
%%%mzn-stat: nogoods=732740
%%%mzn-stat: AverageConflictSize=55.083518028222834
%%%mzn-stat: NumUnitNogoodsLearned=181
%%%mzn-stat: AverageLearnedNogoodLength=114.00786499986353
%%%mzn-stat: AverageBacktrackAmount=0
%%%mzn-stat: AverageLbd=28.196981193875043
%%%mzn-stat-end
